%%
% Autogenerated by /opt/prj/battleships-ai/src/server/solver.py, instance 2 8x8 [8] #7 <zq5p1c>
% Source: https://www.puzzle-battleships.com/?size=2
%%

size = 8;
hints_num = 2;
hints = [| 6, 4 | 8, 5 |];
ships_num = 9;

constr_rows = [3, 2, 3, 1, 5, 1, 2, 2];
constr_cols = [4, 2, 1, 2, 1, 3, 3, 3];

given_ships = [|
<>, <>, <>, <>, 1, |
<>, <>, <>, <>, 1, |
<>, <>, <>, <>, 1, |
<>, <>, <>, <>, 2, |
<>, <>, <>, <>, 2, |
<>, <>, <>, <>, 2, |
<>, <>, <>, <>, 3, |
<>, <>, <>, <>, 3, |
<>, <>, <>, <>, 4  |];

